20
587 233 220
86 65 57
61 37 32
39 33 27
85 33 26
101 94 42
65 53 46
76 72 39
47 42 25
93 76 60
95 74 51
97 66 32
116 78 37
98 53 47
68 63 60
93 91 68
90 88 35
93 71 66
100 89 70
94 84 35
74 40 30
thpack7_91